(set-logic UF)
(declare-sort Set 0)
(declare-sort Elem 0)
(declare-fun member (Elem Set) Bool)
(declare-fun subset (Set Set) Bool)
(declare-fun s1 () Set)
(declare-fun s2 () Set)
(declare-fun x () Elem)
(assert (not (member x s2)))
(assert (member x s2))
(check-sat)
(exit)
